5592080.0
1706
6 9 10 12 13 15 16 17 18 19 23 25 28 29 31 33 34 35 36 39 45 46 48 50 52 54 57 58 60 62 63 64 65 67 68 69 71 72 73 74 76 77 79 80 84 88 91 92 93 94 95 97 99 101 102 104 105 106 110 111 112 113 116 118 120 121 122 123 126 127 128 129 130 132 134 135 137 140 144 145 146 148 149 151 153 155 157 158 159 161 163 164 166 168 169 170 171 173 175 177 179 183 186 188 191 192 195 196 198 199 